4079.67
0 1 2 3 4 5 6 7 8 9 10 18 64 0
0 14 22 27 31 34 37 44 41 85 74 17 12 0
0 24 25 33 40 46 47 65 50 0
0 28 29 30 32 35 36 39 58 0
0 38 42 43 45 48 49 51 53 55 56 59 60 62 67 0
0 54 57 61 63 68 72 52 0
0 66 69 70 71 73 75 77 79 81 83 84 86 21 0
0 76 80 87 88 92 19 0
0 78 82 89 90 91 93 94 96 97 98 16 0
0 100 11 95 13 0
0 15 23 20 26 0
